unsat
(:max-memory         18.05
 :memory             18.05
 :nlsat-conflicts    2
 :nlsat-propagations 5
 :nlsat-stages       2
 :num-allocs         22289
 :rlimit-count       2438
 :time               0.00)
